R03546012許芸瑄FinalProject/HSForTSP/TSPUtility35/TSPBank/Circular6.tsp
NAME : Circular6
COMMENT : 6 cities evently distributed on the circomference of the origin centered circle with radius 10.
TYPE : TSP
DIMENSION : 6
EDGE_WEIGHT_TYPE : EUC_2D
NODE_COORD_SECTION
1 10.0000 0.0000
2 5.0000 8.6603
3 -5.0000 8.6603
4 -10.0000 0.0000
5 -5.0000 -8.6603
6 5.0000 -8.6603
EOF
