R03546012許芸瑄Ass09/TSPUtility35/TSPBank/Circular6.opt.tour
NAME : Circular6
COMMENT : 6 cities evently distributed on the circomference of the origin centered circle with radius 10. Minimal Legth: 60.000
TYPE : TOUR
DIMENSION : 6
TOUR_SECTION
1
2
3
4
5
6
-1
EOF
